SDVRP instances/custom_instances/p02_9_split0.vrp
NAME:p02_9_split
BEST_KNOWN: 0
COMMENT: 0
DIMENSION: 378
CAPACITY: 140
EDGE_WEIGHT_FORMAT: FUNCTION
EDGE_WEIGHT_TYPE: EXACT_2D
NODE_COORD_SECTION
1 0.00000 0.00000
2 16 -38
3 16 -38
4 16 -38
5 16 -38
6 -48 20
7 -48 20
8 -48 20
9 -48 20
10 -48 20
11 46 45
12 46 45
13 46 45
14 7 20
15 7 20
16 7 20
17 24 6
18 24 6
19 24 6
20 24 6
21 -34 6
22 -34 6
23 -34 6
24 -34 6
25 -34 6
26 -34 6
27 39 -36
28 39 -36
29 39 -36
30 -36 -19
31 8 10
32 8 10
33 8 10
34 8 10
35 8 10
36 8 10
37 8 10
38 22 -24
39 22 -24
40 22 -24
41 22 -24
42 22 -24
43 -18 33
44 -18 33
45 -18 33
46 -18 33
47 -18 33
48 -14 -11
49 -14 -11
50 -14 -11
51 -14 -11
52 10 -36
53 10 -36
54 10 -36
55 10 -36
56 -19 10
57 -19 10
58 -19 10
59 -19 10
60 -19 10
61 -19 10
62 -19 10
63 6 37
64 6 37
65 6 37
66 6 37
67 38 24
68 38 24
69 38 24
70 38 24
71 38 24
72 38 24
73 9 -22
74 9 -22
75 9 -22
76 9 -22
77 9 -22
78 9 -22
79 -49 48
80 -49 48
81 -49 48
82 -49 48
83 -49 48
84 -25 20
85 -25 20
86 -25 20
87 -25 20
88 -25 20
89 -25 20
90 43 42
91 43 42
92 43 42
93 43 42
94 43 42
95 43 42
96 43 42
97 43 42
98 43 42
99 31 43
100 31 43
101 31 43
102 -45 -39
103 -45 -39
104 -45 -39
105 -45 -39
106 -45 -39
107 -45 -39
108 -15 38
109 -15 38
110 -15 38
111 -15 38
112 -15 38
113 -15 38
114 -30 -18
115 -30 -18
116 -30 -18
117 -44 -48
118 -44 -48
119 -44 -48
120 -44 -48
121 -44 -48
122 40 -21
123 40 -21
124 40 -21
125 40 -21
126 40 -21
127 9 -49
128 9 -49
129 9 -49
130 9 -49
131 9 -49
132 37 -47
133 37 -47
134 37 -47
135 37 -47
136 -21 -1
137 -21 -1
138 -22 -21
139 -22 -21
140 -22 -21
141 -22 -21
142 -22 -21
143 31 -18
144 31 -18
145 31 -18
146 31 -18
147 31 -18
148 10 40
149 10 40
150 10 40
151 10 40
152 26 38
153 26 38
154 26 38
155 26 38
156 26 38
157 26 38
158 24 -38
159 24 -38
160 24 -38
161 24 -38
162 24 -38
163 24 -38
164 24 -38
165 -22 11
166 -22 11
167 -22 11
168 -22 11
169 -22 11
170 -22 11
171 -22 11
172 -41 -43
173 -41 -43
174 -41 -43
175 29 35
176 29 35
177 29 35
178 29 35
179 29 35
180 29 35
181 29 35
182 29 35
183 34 -15
184 34 -15
185 34 -15
186 34 -15
187 34 -15
188 34 -15
189 34 -15
190 -50 -50
191 -50 -50
192 7 -15
193 7 -15
194 7 -15
195 7 -15
196 7 -15
197 7 -15
198 14 -15
199 14 -15
200 14 -15
201 14 -15
202 14 -15
203 -30 39
204 -30 39
205 -30 39
206 -30 39
207 -30 39
208 -30 39
209 -1 -31
210 -1 -31
211 -1 -31
212 -1 -31
213 -31 -26
214 -31 -26
215 -31 -26
216 -31 -26
217 -31 -26
218 -31 -26
219 49 45
220 49 45
221 41 -27
222 41 -27
223 41 -27
224 41 -27
225 41 -27
226 41 -27
227 41 -27
228 41 -27
229 41 -27
230 -18 26
231 -18 26
232 -18 26
233 -18 26
234 -18 26
235 -18 26
236 -18 26
237 -18 26
238 -18 26
239 -48 49
240 -48 49
241 -48 49
242 -48 49
243 -48 49
244 -48 49
245 -43 4
246 -43 4
247 -43 4
248 -43 4
249 -26 -36
250 -26 -36
251 -20 17
252 -20 17
253 -20 17
254 -20 17
255 -20 17
256 -20 17
257 -20 17
258 -20 17
259 46 20
260 46 20
261 46 20
262 46 20
263 37 4
264 37 4
265 37 4
266 48 -10
267 48 -10
268 48 -10
269 48 -10
270 48 -10
271 -39 -45
272 -39 -45
273 -39 -45
274 -27 48
275 -27 48
276 -27 48
277 -27 48
278 -27 48
279 -27 48
280 -27 48
281 -31 -16
282 -31 -16
283 -14 22
284 -14 22
285 -14 22
286 -14 22
287 -14 22
288 -14 22
289 -21 -23
290 -21 -23
291 -21 -23
292 -21 -23
293 -21 -23
294 8 44
295 8 44
296 8 44
297 8 44
298 8 44
299 8 44
300 32 40
301 32 40
302 32 40
303 10 -2
304 10 -2
305 10 -2
306 10 -2
307 -43 10
308 -43 10
309 -43 10
310 -43 10
311 -9 37
312 -9 37
313 -9 37
314 37 21
315 37 21
316 37 21
317 37 21
318 37 21
319 37 21
320 37 21
321 37 21
322 10 -40
323 10 -40
324 10 -40
325 10 -40
326 10 -40
327 10 -40
328 10 -40
329 10 -40
330 12 18
331 12 18
332 12 18
333 44 -16
334 44 -16
335 44 -16
336 44 -16
337 44 -16
338 44 -16
339 -3 -38
340 -3 -38
341 -3 -38
342 -3 -38
343 -44 -3
344 -44 -3
345 -44 -3
346 -44 -3
347 -44 -3
348 -44 -3
349 15 -24
350 15 -24
351 15 -24
352 15 -24
353 -23 18
354 -23 18
355 -23 18
356 -23 18
357 -23 18
358 -23 18
359 -23 18
360 -19 -16
361 -19 -16
362 -19 -16
363 -19 -16
364 -19 -16
365 -19 -16
366 -19 -16
367 41 -16
368 41 -16
369 41 -16
370 41 -16
371 41 -16
372 -18 -36
373 -18 -36
374 -18 -36
375 -18 -36
376 -18 -36
377 -18 -36
378 -18 -36
DEMAND_SECTION
1 0
2 28
3 7
4 1
5 1
6 28
7 28
8 7
9 1
10 1
11 28
12 28
13 14
14 28
15 14
16 1
17 28
18 1
19 1
20 1
21 28
22 28
23 7
24 1
25 1
26 1
27 28
28 28
29 1
30 28
31 28
32 1
33 1
34 1
35 1
36 1
37 1
38 28
39 14
40 1
41 1
42 1
43 28
44 14
45 7
46 1
47 1
48 28
49 28
50 7
51 1
52 28
53 14
54 7
55 1
56 28
57 14
58 1
59 1
60 1
61 1
62 1
63 28
64 1
65 1
66 1
67 14
68 7
69 1
70 1
71 1
72 1
73 14
74 1
75 1
76 1
77 1
78 1
79 14
80 1
81 1
82 1
83 1
84 28
85 14
86 7
87 1
88 1
89 1
90 28
91 14
92 7
93 1
94 1
95 1
96 1
97 1
98 1
99 28
100 14
101 1
102 28
103 1
104 1
105 1
106 1
107 1
108 14
109 7
110 1
111 1
112 1
113 1
114 28
115 1
116 1
117 28
118 14
119 1
120 1
121 1
122 14
123 1
124 1
125 1
126 1
127 28
128 28
129 7
130 1
131 1
132 28
133 28
134 1
135 1
136 28
137 7
138 28
139 14
140 1
141 1
142 1
143 28
144 28
145 7
146 1
147 1
148 28
149 14
150 1
151 1
152 28
153 14
154 7
155 1
156 1
157 1
158 14
159 1
160 1
161 1
162 1
163 1
164 1
165 28
166 28
167 7
168 1
169 1
170 1
171 1
172 28
173 1
174 1
175 28
176 14
177 7
178 1
179 1
180 1
181 1
182 1
183 14
184 7
185 1
186 1
187 1
188 1
189 1
190 28
191 14
192 28
193 1
194 1
195 1
196 1
197 1
198 14
199 7
200 1
201 1
202 1
203 28
204 28
205 7
206 1
207 1
208 1
209 14
210 1
211 1
212 1
213 28
214 1
215 1
216 1
217 1
218 1
219 28
220 14
221 28
222 14
223 7
224 1
225 1
226 1
227 1
228 1
229 1
230 28
231 14
232 7
233 1
234 1
235 1
236 1
237 1
238 1
239 28
240 1
241 1
242 1
243 1
244 1
245 14
246 7
247 1
248 1
249 14
250 7
251 28
252 14
253 7
254 1
255 1
256 1
257 1
258 1
259 28
260 7
261 1
262 1
263 28
264 28
265 14
266 28
267 14
268 1
269 1
270 1
271 14
272 7
273 1
274 28
275 28
276 7
277 1
278 1
279 1
280 1
281 14
282 7
283 28
284 28
285 7
286 1
287 1
288 1
289 28
290 28
291 1
292 1
293 1
294 28
295 14
296 7
297 1
298 1
299 1
300 28
301 14
302 1
303 28
304 28
305 1
306 1
307 28
308 14
309 1
310 1
311 14
312 7
313 1
314 28
315 14
316 1
317 1
318 1
319 1
320 1
321 1
322 28
323 28
324 1
325 1
326 1
327 1
328 1
329 1
330 28
331 14
332 1
333 28
334 7
335 1
336 1
337 1
338 1
339 28
340 1
341 1
342 1
343 28
344 1
345 1
346 1
347 1
348 1
349 28
350 28
351 1
352 1
353 28
354 7
355 1
356 1
357 1
358 1
359 1
360 28
361 28
362 1
363 1
364 1
365 1
366 1
367 14
368 7
369 1
370 1
371 1
372 14
373 1
374 1
375 1
376 1
377 1
378 1
DEPOT_SECTION
1
-1
EOF