SDVRP instances/custom_instances/p02_9_split0.sol
377 -8 9 7 5 6 309 306 308 307 24 23 20 -14 15 13 329 330 331 30 35 32 31 36 -21 22 25 244 246 247 245 345 347 344 343 346 342 136 135 -26 27 28 131 133 134 132 158 162 160 161 159 157 163 -33 34 181 180 175 176 177 178 179 174 89 95 96 92 90 94 93 259 260 258 261 -39 41 40 38 37 143 144 145 146 142 302 -45 43 42 234 233 229 236 282 287 283 284 285 286 -46 44 275 277 274 276 278 279 273 239 243 240 242 241 238 79 82 80 78 81 85 88 -48 214 217 212 216 215 213 105 101 102 103 104 106 249 248 376 371 373 372 375 374 377 -49 47 50 141 140 138 137 139 292 289 288 290 291 -53 52 54 51 322 321 328 325 326 327 324 323 208 211 209 210 -55 57 61 56 60 58 59 165 164 168 169 170 167 166 -62 63 65 64 297 296 294 295 293 298 150 148 149 147 -70 67 71 69 66 68 319 313 317 320 318 316 315 314 16 17 19 18 304 303 305 -74 76 75 3 4 1 2 126 129 130 128 127 341 339 338 340 -97 91 11 10 12 219 218 -154 152 155 153 156 151 99 100 98 301 300 299 -172 171 173 189 190 117 116 120 119 118 272 271 270 -183 187 186 182 269 268 267 265 266 263 264 262 -185 188 184 367 366 370 369 368 337 336 335 334 333 332 121 123 124 125 122 224 226 225 227 222 220 223 228 221 -192 194 196 195 193 191 72 73 77 351 350 349 348 198 200 197 201 199 -237 235 231 232 230 205 202 207 204 206 203 110 112 111 109 108 107 312 310 311 -250 253 256 257 255 254 251 252 84 87 83 86 352 355 354 356 358 357 353 -281 280 29 113 115 114 360 362 363 364 359 365 361 0 





OBJ=
2347.228
BEST_KNOWN=
0.000